files/upTests/two-bars/0004.eprime.solution
language ESSENCE' 1.0
$ minion Nodes: 2
$ minion TotalTime: 0.012718
$ Savile Row TotalTime: 0.784
letting x be -5
letting y be 5
letting s2_SetExplicitVarSizeWithDefault be [0, 1, 2, 3, 4, 5, 6, 7, 8, 9;int(1..10)]
letting s1_SetExplicitVarSize_tuple2 be [0, 1, 2, 3, 4, 5, 6, 7, 8, 9;int(1..10)]
letting s1_SetExplicitVarSize_tuple1 be [true, true, true, true, true, true, true, true, true, true;int(1..10)]
